unsat
(:added-eqs                   3286279
 :arith-eq-adapter            3678
 :arith-bound-propagations-lp 220391
 :arith-conflicts             578
 :arith-diseq                 281336
 :arith-fixed-eqs             334101
 :arith-lower                 161093
 :arith-make-feasible         98291
 :arith-max-columns           1410
 :arith-max-rows              809
 :arith-offset-eqs            126317
 :arith-upper                 371816
 :binary-propagations         15614835
 :conflicts                   30023
 :decisions                   1714173
 :del-clause                  39554
 :elim-unconstrained          2
 :max-memory                  58.30
 :memory                      37.15
 :minimized-lits              266749
 :mk-bool-var                 23896
 :mk-clause                   41364
 :mk-clause-binary            67738
 :num-allocs                  589190937
 :num-checks                  1
 :pb-conflicts                10
 :pb-predicates               32
 :pb-propagations             635
 :propagations                20570350
 :restarts                    166
 :rlimit-count                57689180
 :time                        18.56
 :total-time                  18.73)
